8109
16, 29, 50, 20, 23, 30, 2, 7, 42, 17, 21, 31, 18, 3, 45, 41, 19, 8, 10, 9, 43, 33, 51, 11, 52, 14, 13, 47, 26, 27, 28, 12, 25, 4, 6, 15, 5, 24, 48, 37, 34, 35, 1, 22, 32, 49, 36, 39, 40, 38, 46, 44
